clingo version 5.6.2
Reading from creek.lp ...
Solving...
Answer: 1
hint(0,2,1) hint(0,3,0) hint(1,1,2) hint(1,4,3) hint(2,0,1) hint(2,5,1) hint(3,1,3) hint(3,2,3) hint(3,4,2) hint(5,1,2) hint(5,3,2) hint(5,5,2) black(1,2) white(1,3) white(1,4) black(1,1) black(1,5) white(1,6) white(2,1) white(2,2) white(2,3) black(2,4) black(2,5) white(2,6) black(3,1) black(3,2) white(3,3) white(3,4) white(3,5) white(3,6) white(4,1) black(4,2) black(4,3) black(4,4) black(4,5) white(4,6) white(5,1) white(5,2) white(5,3) white(5,4) white(5,5) white(5,6) black(6,1) black(6,2) black(6,3) black(6,4) black(6,5) black(6,6)
SATISFIABLE

Models       : 1+
Calls        : 1
Time         : 0.008s (Solving: 0.00s 1st Model: 0.00s Unsat: 0.00s)
CPU Time     : 0.000s
